nNurses = 145;
nHours = 36;
minHours = 3;
maxHours = 17;
maxConsec = 16;
maxPresence = 35;
demand = [34, 35, 34, 33, 35, 38, 39, 40, 36, 33, 30, 33, 34, 30, 28, 26, 31, 33, 29, 25, 25, 24, 23, 18, 23, 18, 22, 18, 15, 16, 17, 17, 18, 15, 11, 12];
